(set-info :source |printed by MathSAT|)
(declare-fun |!{$(in_main#0)<a.1>}| () (Array Int Int))
(declare-fun |!{$(in_main#0)<a.1>}.next| () (Array Int Int))
(declare-fun |!{$(in_main#0)<b.2>}| () (Array Int Int))
(declare-fun |!{$(in_main#0)<b.2>}.next| () (Array Int Int))
(declare-fun |!{$(in_main#0)<N>}| () Int)
(declare-fun |!{$(in_main#0)<N>}.next| () Int)
(declare-fun |!{$(in_main#0)<i>}| () Int)
(declare-fun |!{$(in_main#0)<i>}.next| () Int)
(declare-fun |!{$(in_main#0)<j>}| () Int)
(declare-fun |!{$(in_main#0)<j>}.next| () Int)
(declare-fun |!{$(in_main#0)<k>}| () Int)
(declare-fun |!{$(in_main#0)<k>}.next| () Int)
(declare-fun |!{$(in_main#0)<$(in___VERIFIER_nondet_int#0)<h#<__VERIFIER_nondet_int.return>>>}| () Int)
(declare-fun |!{$(in_main#0)<$(in___VERIFIER_nondet_int#2)<h#<__VERIFIER_nondet_int.return>>>}| () Int)
(declare-fun !pc () Int)
(declare-fun !pc.next () Int)
(declare-fun |%{$(in_main#0)<a.1>}#1| () (Array Int Int))
(declare-fun |%{$(in_main#0)<b.2>}#1| () (Array Int Int))
(declare-fun |%{$(in_main#0)<j>}#2| () Int)
(define-fun .def_36 () Int (! !pc :next !pc.next))
(define-fun .def_39 () Bool (! (= .def_36 2) :init true))
(define-fun .def_177 () Bool (= .def_36 52))
(define-fun .def_153 () Bool (= !pc.next 75))
(define-fun .def_180 () Bool (and .def_153 .def_177))
(define-fun .def_12 () Int (! |!{$(in_main#0)<N>}| :next |!{$(in_main#0)<N>}.next|))
(define-fun .def_76 () Bool (= .def_12 |!{$(in_main#0)<N>}.next|))
(define-fun .def_10 () (Array Int Int) (! |!{$(in_main#0)<b.2>}| :next |!{$(in_main#0)<b.2>}.next|))
(define-fun .def_74 () Bool (= .def_10 |!{$(in_main#0)<b.2>}.next|))
(define-fun .def_8 () (Array Int Int) (! |!{$(in_main#0)<a.1>}| :next |!{$(in_main#0)<a.1>}.next|))
(define-fun .def_73 () Bool (= .def_8 |!{$(in_main#0)<a.1>}.next|))
(define-fun .def_75 () Bool (and .def_73 .def_74))
(define-fun .def_77 () Bool (and .def_75 .def_76))
(define-fun .def_62 () Bool (= |!{$(in_main#0)<i>}.next| 0))
(define-fun .def_147 () Bool (and .def_62 .def_77))
(define-fun .def_16 () Int (! |!{$(in_main#0)<j>}| :next |!{$(in_main#0)<j>}.next|))
(define-fun .def_80 () Bool (= .def_16 |!{$(in_main#0)<j>}.next|))
(define-fun .def_148 () Bool (and .def_80 .def_147))
(define-fun .def_18 () Int (! |!{$(in_main#0)<k>}| :next |!{$(in_main#0)<k>}.next|))
(define-fun .def_82 () Bool (= .def_18 |!{$(in_main#0)<k>}.next|))
(define-fun .def_149 () Bool (and .def_82 .def_148))
(define-fun .def_14 () Int (! |!{$(in_main#0)<i>}| :next |!{$(in_main#0)<i>}.next|))
(define-fun .def_88 () Bool (<= .def_12 .def_14))
(define-fun .def_150 () Bool (and .def_88 .def_149))
(define-fun .def_181 () Bool (and .def_150 .def_180))
(define-fun .def_70 () Bool (= !pc.next 52))
(define-fun .def_178 () Bool (and .def_70 .def_177))
(define-fun .def_172 () Bool (= |!{$(in_main#0)<j>}.next| |%{$(in_main#0)<j>}#2|))
(define-fun .def_101 () Int (* (- 1) |!{$(in_main#0)<i>}.next|))
(define-fun .def_102 () Int (+ .def_14 .def_101))
(define-fun .def_103 () Bool (= .def_102 (- 1)))
(define-fun .def_104 () Bool (and .def_77 .def_103))
(define-fun .def_173 () Bool (and .def_104 .def_172))
(define-fun .def_174 () Bool (and .def_82 .def_173))
(define-fun .def_135 () Int (select .def_8 .def_14))
(define-fun .def_167 () Bool (= .def_135 |%{$(in_main#0)<j>}#2|))
(define-fun .def_160 () Bool (<= .def_16 .def_135))
(define-fun .def_161 () Bool (not .def_160))
(define-fun .def_169 () Bool (and .def_161 .def_167))
(define-fun .def_166 () Bool (= .def_16 |%{$(in_main#0)<j>}#2|))
(define-fun .def_168 () Bool (and .def_160 .def_166))
(define-fun .def_170 () Bool (or .def_168 .def_169))
(define-fun .def_175 () Bool (and .def_170 .def_174))
(define-fun .def_89 () Bool (not .def_88))
(define-fun .def_176 () Bool (and .def_89 .def_175))
(define-fun .def_179 () Bool (and .def_176 .def_178))
(define-fun .def_182 () Bool (or .def_179 .def_181))
(define-fun .def_152 () Bool (= .def_36 75))
(define-fun .def_124 () Bool (= !pc.next 89))
(define-fun .def_156 () Bool (and .def_124 .def_152))
(define-fun .def_157 () Bool (and .def_150 .def_156))
(define-fun .def_154 () Bool (and .def_152 .def_153))
(define-fun .def_136 () Int (* (- 1) .def_16))
(define-fun .def_138 () Int (+ .def_136 .def_135))
(define-fun .def_139 () (Array Int Int) (store .def_10 .def_14 .def_138))
(define-fun .def_140 () Bool (= |!{$(in_main#0)<b.2>}.next| .def_139))
(define-fun .def_141 () Bool (and .def_73 .def_140))
(define-fun .def_142 () Bool (and .def_76 .def_141))
(define-fun .def_143 () Bool (and .def_103 .def_142))
(define-fun .def_144 () Bool (and .def_80 .def_143))
(define-fun .def_145 () Bool (and .def_82 .def_144))
(define-fun .def_146 () Bool (and .def_89 .def_145))
(define-fun .def_155 () Bool (and .def_146 .def_154))
(define-fun .def_158 () Bool (or .def_155 .def_157))
(define-fun .def_123 () Bool (= .def_36 89))
(define-fun .def_86 () Bool (= !pc.next 0))
(define-fun .def_131 () Bool (and .def_86 .def_123))
(define-fun .def_94 () Bool (<= 0 .def_18))
(define-fun .def_95 () Int (ite .def_94 1 0))
(define-fun .def_96 () Bool (= .def_95 0))
(define-fun .def_97 () Bool (not .def_96))
(define-fun .def_78 () Bool (= .def_14 |!{$(in_main#0)<i>}.next|))
(define-fun .def_79 () Bool (and .def_77 .def_78))
(define-fun .def_81 () Bool (and .def_79 .def_80))
(define-fun .def_83 () Bool (and .def_81 .def_82))
(define-fun .def_120 () Bool (and .def_83 .def_97))
(define-fun .def_121 () Bool (and .def_88 .def_120))
(define-fun .def_132 () Bool (and .def_121 .def_131))
(define-fun .def_127 () Bool (= !pc.next 114))
(define-fun .def_128 () Bool (and .def_123 .def_127))
(define-fun .def_113 () Bool (and .def_73 .def_96))
(define-fun .def_114 () Bool (and .def_74 .def_113))
(define-fun .def_115 () Bool (and .def_76 .def_114))
(define-fun .def_116 () Bool (and .def_78 .def_115))
(define-fun .def_117 () Bool (and .def_80 .def_116))
(define-fun .def_118 () Bool (and .def_82 .def_117))
(define-fun .def_119 () Bool (and .def_88 .def_118))
(define-fun .def_129 () Bool (and .def_119 .def_128))
(define-fun .def_125 () Bool (and .def_123 .def_124))
(define-fun .def_90 () Int (select .def_10 .def_14))
(define-fun .def_106 () Int (* (- 1) |!{$(in_main#0)<k>}.next|))
(define-fun .def_107 () Int (+ .def_106 .def_90))
(define-fun .def_108 () Int (+ .def_18 .def_107))
(define-fun .def_109 () Int (+ .def_14 .def_108))
(define-fun .def_110 () Bool (= .def_109 0))
(define-fun .def_105 () Bool (and .def_80 .def_104))
(define-fun .def_111 () Bool (and .def_105 .def_110))
(define-fun .def_112 () Bool (and .def_89 .def_111))
(define-fun .def_126 () Bool (and .def_112 .def_125))
(define-fun .def_130 () Bool (or .def_126 .def_129))
(define-fun .def_133 () Bool (or .def_130 .def_132))
(define-fun .def_71 () Bool (and .def_39 .def_70))
(define-fun .def_66 () Bool (= |!{$(in_main#0)<k>}.next| 0))
(define-fun .def_64 () Bool (= |!{$(in_main#0)<j>}.next| |!{$(in_main#0)<$(in___VERIFIER_nondet_int#2)<h#<__VERIFIER_nondet_int.return>>>}|))
(define-fun .def_60 () Bool (= |!{$(in_main#0)<N>}.next| |!{$(in_main#0)<$(in___VERIFIER_nondet_int#0)<h#<__VERIFIER_nondet_int.return>>>}|))
(define-fun .def_58 () Bool (= |!{$(in_main#0)<b.2>}.next| |%{$(in_main#0)<b.2>}#1|))
(define-fun .def_57 () Bool (= |!{$(in_main#0)<a.1>}.next| |%{$(in_main#0)<a.1>}#1|))
(define-fun .def_59 () Bool (and .def_57 .def_58))
(define-fun .def_61 () Bool (and .def_59 .def_60))
(define-fun .def_63 () Bool (and .def_61 .def_62))
(define-fun .def_65 () Bool (and .def_63 .def_64))
(define-fun .def_67 () Bool (and .def_65 .def_66))
(define-fun .def_52 () Bool (<= |!{$(in_main#0)<$(in___VERIFIER_nondet_int#0)<h#<__VERIFIER_nondet_int.return>>>}| 0))
(define-fun .def_53 () Bool (not .def_52))
(define-fun .def_54 () Int (ite .def_53 1 0))
(define-fun .def_55 () Bool (= .def_54 0))
(define-fun .def_56 () Bool (not .def_55))
(define-fun .def_68 () Bool (and .def_56 .def_67))
(define-fun .def_72 () Bool (and .def_68 .def_71))
(define-fun .def_134 () Bool (or .def_72 .def_133))
(define-fun .def_159 () Bool (or .def_134 .def_158))
(define-fun .def_183 () Bool (! (or .def_159 .def_182) :trans true))
(define-fun .def_85 () Bool (= .def_36 114))
(define-fun .def_184 () Bool (! (not .def_85) :invar-property 0 :invar-property-name ||))
(assert true)
